12° run output:
{
    "Function": "kroA300.tsp",
    "Problem dimension": [
        52,
        291,
        171,
        274,
        38,
        112,
        9,
        125,
        225,
        223,
        87,
        199,
        109,
        275,
        31,
        282,
        45,
        295,
        6,
        25,
        284,
        118,
        181,
        138,
        233,
        27,
        182,
        102,
        211,
        82,
        178,
        286,
        252,
        36,
        198,
        169,
        193,
        123,
        131,
        259,
        283,
        293,
        227,
        94,
        194,
        209,
        271,
        246,
        3,
        202,
        204,
        159,
        79,
        127,
        100,
        217,
        278,
        133,
        90,
        151,
        55,
        70,
        184,
        44,
        32,
        248,
        222,
        265,
        136,
        281,
        108,
        190,
        91,
        287,
        58,
        163,
        288,
        216,
        277,
        160,
        154,
        101,
        72,
        67,
        106,
        22,
        43,
        292,
        285,
        61,
        238,
        37,
        219,
        69,
        273,
        15,
        65,
        266,
        107,
        174,
        56,
        234,
        34,
        16,
        97,
        89,
        128,
        144,
        84,
        0,
        26,
        251,
        258,
        220,
        165,
        81,
        17,
        145,
        210,
        156,
        149,
        214,
        267,
        256,
        5,
        113,
        12,
        279,
        48,
        115,
        117,
        264,
        249,
        39,
        205,
        187,
        62,
        8,
        240,
        167,
        229,
        122,
        14,
        239,
        63,
        244,
        173,
        179,
        141,
        2,
        221,
        260,
        49,
        71,
        294,
        33,
        170,
        53,
        235,
        119,
        116,
        50,
        121,
        200,
        164,
        212,
        189,
        203,
        153,
        88,
        99,
        80,
        237,
        213,
        215,
        176,
        152,
        207,
        155,
        76,
        168,
        226,
        254,
        13,
        96,
        130,
        191,
        150,
        224,
        247,
        232,
        28,
        73,
        290,
        4,
        269,
        263,
        68,
        86,
        243,
        51,
        95,
        297,
        46,
        135,
        289,
        172,
        42,
        129,
        147,
        104,
        201,
        139,
        1,
        261,
        20,
        40,
        296,
        242,
        47,
        245,
        83,
        120,
        114,
        19,
        57,
        299,
        157,
        192,
        186,
        66,
        78,
        185,
        146,
        197,
        218,
        206,
        137,
        77,
        241,
        18,
        98,
        59,
        298,
        158,
        148,
        188,
        105,
        110,
        54,
        142,
        140,
        24,
        23,
        60,
        230,
        272,
        29,
        166,
        143,
        132,
        75,
        253,
        93,
        250,
        85,
        74,
        276,
        208,
        257,
        124,
        255,
        180,
        270,
        64,
        30,
        236,
        126,
        195,
        228,
        175,
        177,
        21,
        111,
        262,
        268,
        161,
        134,
        41,
        11,
        280,
        196,
        183,
        35,
        7,
        231,
        92,
        10,
        103,
        162
    ],
    "Global Optimum": 0,
    "Algorithm": "Genetic algorithm",
    "Parameters": {
        "population": 30,
        "offspring": 30,
        "mutation probability": 0.0033333333333333335,
        "crossover probability": 0.9
    },
    "Fitness": 259032,
    "Solution": [
        52,
        291,
        171,
        274,
        38,
        112,
        9,
        125,
        225,
        223,
        87,
        199,
        109,
        275,
        31,
        282,
        45,
        295,
        6,
        25,
        284,
        118,
        181,
        138,
        233,
        27,
        182,
        102,
        211,
        82,
        178,
        286,
        252,
        36,
        198,
        169,
        193,
        123,
        131,
        259,
        283,
        293,
        227,
        94,
        194,
        209,
        271,
        246,
        3,
        202,
        204,
        159,
        79,
        127,
        100,
        217,
        278,
        133,
        90,
        151,
        55,
        70,
        184,
        44,
        32,
        248,
        222,
        265,
        136,
        281,
        108,
        190,
        91,
        287,
        58,
        163,
        288,
        216,
        277,
        160,
        154,
        101,
        72,
        67,
        106,
        22,
        43,
        292,
        285,
        61,
        238,
        37,
        219,
        69,
        273,
        15,
        65,
        266,
        107,
        174,
        56,
        234,
        34,
        16,
        97,
        89,
        128,
        144,
        84,
        0,
        26,
        251,
        258,
        220,
        165,
        81,
        17,
        145,
        210,
        156,
        149,
        214,
        267,
        256,
        5,
        113,
        12,
        279,
        48,
        115,
        117,
        264,
        249,
        39,
        205,
        187,
        62,
        8,
        240,
        167,
        229,
        122,
        14,
        239,
        63,
        244,
        173,
        179,
        141,
        2,
        221,
        260,
        49,
        71,
        294,
        33,
        170,
        53,
        235,
        119,
        116,
        50,
        121,
        200,
        164,
        212,
        189,
        203,
        153,
        88,
        99,
        80,
        237,
        213,
        215,
        176,
        152,
        207,
        155,
        76,
        168,
        226,
        254,
        13,
        96,
        130,
        191,
        150,
        224,
        247,
        232,
        28,
        73,
        290,
        4,
        269,
        263,
        68,
        86,
        243,
        51,
        95,
        297,
        46,
        135,
        289,
        172,
        42,
        129,
        147,
        104,
        201,
        139,
        1,
        261,
        20,
        40,
        296,
        242,
        47,
        245,
        83,
        120,
        114,
        19,
        57,
        299,
        157,
        192,
        186,
        66,
        78,
        185,
        146,
        197,
        218,
        206,
        137,
        77,
        241,
        18,
        98,
        59,
        298,
        158,
        148,
        188,
        105,
        110,
        54,
        142,
        140,
        24,
        23,
        60,
        230,
        272,
        29,
        166,
        143,
        132,
        75,
        253,
        93,
        250,
        85,
        74,
        276,
        208,
        257,
        124,
        255,
        180,
        270,
        64,
        30,
        236,
        126,
        195,
        228,
        175,
        177,
        21,
        111,
        262,
        268,
        161,
        134,
        41,
        11,
        280,
        196,
        183,
        35,
        7,
        231,
        92,
        10,
        103,
        162
    ],
    "Nb of functions evaluations": 400020,
    "Computational time in seconds": 728.5761473178864,
    "Stopping criterion in evaluations": 400000
}